NAME : R109.11469.tour
COMMENT : Cost = 0_11469
COMMENT : Found by LKH [Keld Helsgaun] Wed Sep 13 19:10:36 2017
TYPE : TOUR
DIMENSION : 113
TOUR_SECTION
1
63
12
65
64
91
33
11
71
113
41
22
74
23
42
75
57
5
59
107
6
84
9
46
85
18
61
90
111
3
43
16
58
88
95
7
97
112
54
102
96
93
99
45
39
15
44
98
14
109
13
30
79
80
4
51
27
104
73
76
24
68
40
26
56
55
25
81
103
32
20
48
50
37
47
49
108
29
77
34
82
10
36
35
69
78
105
28
70
31
52
72
66
67
21
2
106
60
100
86
62
17
87
92
38
101
94
110
53
89
8
83
19
-1
EOF
